
List of user-set options:

                                    Name   Value                used
                        file_print_level = 5                     yes
                   hessian_approximation = limited-memory        yes
                           linear_solver = mumps                 yes
                                max_iter = 120                   yes
                      nlp_scaling_method = user-scaling          yes
                             output_file = /Users/marcello/Documents/zhaw/BAZL/DRACONIAN/Dymos/terrain_traj_v6_out/IPOPT.out  yes
                             print_level = 5                     yes
                      print_user_options = yes                   yes
                                      sb = yes                   yes
This is Ipopt version 3.14.19, running with linear solver MUMPS 5.8.2.

Number of nonzeros in equality constraint Jacobian...:    14799
Number of nonzeros in inequality constraint Jacobian.:     3825
Number of nonzeros in Lagrangian Hessian.............:        0

Total number of variables............................:      223
                     variables with only lower bounds:       45
                variables with lower and upper bounds:      122
                     variables with only upper bounds:        0
Total number of equality constraints.................:      177
Total number of inequality constraints...............:       45
        inequality constraints with only lower bounds:        0
   inequality constraints with lower and upper bounds:       45
        inequality constraints with only upper bounds:        0

iter    objective    inf_pr   inf_du lg(mu)  ||d||  lg(rg) alpha_du alpha_pr  ls
   0  2.8045846e+00 8.85e+00 2.07e-01   0.0 0.00e+00    -  0.00e+00 0.00e+00   0
   1  4.1193085e+00 6.90e+00 3.28e+01   0.1 2.43e+01    -  3.85e-02 2.18e-01f  1
   2  4.4552880e+00 6.17e+00 1.16e+02   0.5 1.43e+01    -  1.08e-01 1.07e-01f  1
   3  5.0132403e+00 4.54e+00 8.68e+01   0.8 2.06e+01    -  1.36e-01 2.60e-01f  1
   4  5.0500870e+00 4.53e+00 4.67e+02   2.9 5.34e+02    -  2.22e-02 2.81e-03f  1
   5  5.1095515e+00 4.11e+00 1.04e+02   1.2 1.40e+01    -  2.30e-01 9.26e-02f  1
   6  5.5847363e+00 6.26e-01 5.73e+01   0.5 1.46e+01    -  5.38e-01 9.73e-01f  1
   7  5.8616003e+00 4.34e-02 3.52e+02   0.7 1.96e+00    -  4.79e-01 1.00e+00f  1
   8  5.9224983e+00 6.27e-02 3.35e+01   0.2 5.06e+00    -  9.16e-01 1.00e+00f  1
   9  5.9352145e+00 1.28e-03 1.17e+00  -0.8 6.13e-01    -  9.61e-01 1.00e+00h  1
iter    objective    inf_pr   inf_du lg(mu)  ||d||  lg(rg) alpha_du alpha_pr  ls
  10  5.9344355e+00 5.91e-05 7.00e-02  -2.7 4.62e-02    -  9.88e-01 1.00e+00h  1
  11  5.8149981e+00 1.37e-02 2.09e-02  -2.7 3.84e+00    -  9.65e-01 1.00e+00f  1
  12  5.6082209e+00 2.44e-01 9.57e-03  -2.4 1.18e+01    -  1.00e+00 1.00e+00h  1
Warning: SOC step rejected due to evaluation error
  13  5.6995184e+00 1.85e-01 2.97e-01  -1.7 1.52e+01    -  1.00e+00 3.25e-01h  2
  14  5.6824013e+00 4.57e-02 1.37e-02  -1.8 3.95e+00    -  1.00e+00 1.00e+00h  1
  15  5.4359843e+00 6.58e-01 1.60e-01  -3.1 1.63e+01    -  6.97e-01 1.00e+00h  1
  16  5.4718478e+00 9.99e-02 8.55e-02  -2.3 7.86e+00    -  7.99e-01 1.00e+00h  1
  17  5.4196254e+00 1.81e-02 1.02e-01  -2.4 3.21e+00    -  7.41e-01 1.00e+00h  1
  18  5.2675126e+00 1.70e-01 8.93e-02  -2.7 6.37e+00    -  8.32e-01 1.00e+00h  1
  19  5.3098548e+00 3.15e-02 4.41e-02  -2.9 3.34e+00    -  9.77e-01 1.00e+00h  1
iter    objective    inf_pr   inf_du lg(mu)  ||d||  lg(rg) alpha_du alpha_pr  ls
  20  5.2953079e+00 2.62e-02 3.17e-02  -3.1 2.81e+00    -  1.00e+00 1.00e+00h  1
  21  5.2782566e+00 3.35e-02 2.10e-02  -2.8 3.85e+00    -  5.91e-01 1.00e+00h  1
  22  5.2268257e+00 8.67e-02 3.89e-02  -3.1 3.61e+00    -  7.14e-01 1.00e+00h  1
  23  5.2454401e+00 7.73e-03 1.17e-02  -3.2 4.98e+00    -  8.51e-01 1.00e+00h  1
  24  5.2594656e+00 1.13e-02 1.42e-02  -2.9 3.62e+00    -  4.81e-01 1.00e+00h  1
  25  5.2442222e+00 4.46e-03 1.54e-02  -3.1 2.77e+00    -  1.00e+00 1.00e+00h  1
  26  5.2328340e+00 1.38e-02 1.64e-02  -3.4 1.73e+00    -  1.00e+00 1.00e+00h  1
  27  5.2331596e+00 2.89e-03 8.96e-03  -3.6 7.04e-01    -  1.00e+00 1.00e+00h  1
  28  5.2262847e+00 2.11e-03 1.31e-02  -4.2 9.99e-01    -  1.00e+00 1.00e+00h  1
  29  5.2246491e+00 2.26e-03 3.97e-03  -4.7 8.73e-01    -  1.00e+00 1.00e+00h  1
iter    objective    inf_pr   inf_du lg(mu)  ||d||  lg(rg) alpha_du alpha_pr  ls
  30  5.2250838e+00 1.79e-03 1.96e-03  -4.7 4.52e-01    -  9.85e-01 1.00e+00h  1
  31  5.2259601e+00 1.59e-03 2.01e-03  -4.4 5.29e-01    -  1.00e+00 1.00e+00h  1
  32  5.2245675e+00 1.30e-03 3.47e-04  -5.2 4.11e-01    -  1.00e+00 1.00e+00h  1
  33  5.2249925e+00 7.49e-04 2.27e-03  -4.9 1.59e-01    -  1.00e+00 1.00e+00h  1
  34  5.2249760e+00 1.77e-03 2.09e-03  -5.3 2.54e-01    -  1.00e+00 1.00e+00h  1
  35  5.2247358e+00 1.79e-04 5.56e-04  -6.0 1.55e-01    -  1.00e+00 1.00e+00h  1
  36  5.2247392e+00 1.96e-04 5.01e-04  -6.7 5.18e-02    -  1.00e+00 1.00e+00h  1
  37  5.2248164e+00 1.34e-04 4.15e-04  -7.5 1.73e-02    -  1.00e+00 1.00e+00h  1
  38  5.2247716e+00 7.37e-05 1.19e-04  -6.7 1.07e-02    -  1.00e+00 1.00e+00h  1
  39  5.2248064e+00 9.17e-07 2.40e-05  -7.6 3.15e-02    -  1.00e+00 1.00e+00H  1
iter    objective    inf_pr   inf_du lg(mu)  ||d||  lg(rg) alpha_du alpha_pr  ls
  40  5.2248047e+00 2.19e-05 3.69e-05  -8.6 8.31e-03    -  1.00e+00 1.00e+00h  1
  41  5.2248184e+00 3.09e-05 7.18e-05  -8.1 6.45e-03    -  1.00e+00 1.00e+00h  1
  42  5.2248122e+00 2.16e-06 1.27e-05  -8.2 1.07e-03    -  1.00e+00 1.00e+00h  1
  43  5.2248161e+00 1.67e-07 1.25e-05 -10.1 3.05e-03    -  1.00e+00 1.00e+00H  1
  44  5.2248160e+00 4.92e-06 3.80e-05  -9.7 1.62e-03    -  1.00e+00 1.00e+00h  1
  45  5.2248149e+00 4.32e-06 3.51e-06  -9.8 1.30e-03    -  1.00e+00 1.00e+00h  1
  46  5.2248153e+00 5.20e-07 1.49e-07  -9.8 1.92e-04    -  1.00e+00 1.00e+00h  1
  47  5.2248167e+00 3.86e-08 4.81e-08 -11.0 3.70e-04    -  1.00e+00 1.00e+00H  1
  48  5.2248167e+00 1.75e-06 1.36e-06 -11.0 3.89e-04    -  1.00e+00 1.00e+00h  1
  49  5.2248167e+00 9.67e-07 6.27e-08 -11.0 2.88e-04    -  1.00e+00 1.00e+00h  1
iter    objective    inf_pr   inf_du lg(mu)  ||d||  lg(rg) alpha_du alpha_pr  ls
  50  5.2248168e+00 3.25e-07 1.44e-07 -11.0 9.13e-05    -  1.00e+00 1.00e+00h  1
  51  5.2248167e+00 1.76e-07 2.23e-09 -11.0 5.65e-05    -  1.00e+00 1.00e+00h  1
  52  5.2248167e+00 1.11e-08 1.82e-09 -11.0 5.26e-06    -  1.00e+00 1.00e+00h  1
  53  5.2248167e+00 1.26e-08 9.28e-10 -11.0 3.54e-06    -  1.00e+00 1.00e+00h  1
  54  5.2248168e+00 8.77e-11 1.75e-09 -11.0 7.18e-06    -  1.00e+00 1.00e+00H  1

Number of Iterations....: 54

                                   (scaled)                 (unscaled)
Objective...............:   5.2248167575324578e+00    5.2248167575324578e+00
Dual infeasibility......:   1.7451264155867304e-09    1.7451264155867304e-09
Constraint violation....:   8.7726573947797863e-11    8.7726573947797863e-11
Variable bound violation:   3.3399959686875036e-08    3.3399959686875036e-08
Complementarity.........:   1.0000000368255280e-11    1.0000000368255280e-11
Overall NLP error.......:   1.7451264155867304e-09    1.7451264155867304e-09


Number of objective function evaluations             = 60
Number of objective gradient evaluations             = 55
Number of equality constraint evaluations            = 61
Number of inequality constraint evaluations          = 60
Number of equality constraint Jacobian evaluations   = 55
Number of inequality constraint Jacobian evaluations = 55
Number of Lagrangian Hessian evaluations             = 0
Total seconds in IPOPT                               = 36.667

EXIT: Optimal Solution Found.
